units			real
atom_style		full
bond_style		harmonic
angle_style             harmonic
dihedral_style		harmonic
pair_style              lj/cut/coul/cut 10.0
pair_modify             mix arithmetic shift yes
#kspace_style  	        pppm 1e-04
boundary      	        p p p
special_bonds		amber

read_data	    	../Data.Production1

variable 		MassinGrams equal mass(all)/6.02e23
variable 		VolumeCubicCentimeter equal vol*1.0e-24
variable 		Density equal v_MassinGrams/v_VolumeCubicCentimeter
variable		SpecificVolume equal 1.0/v_Density

thermo_style    	custom step time atoms temp press vol etotal epair emol evdwl ecoul elong ebond eangle enthalpy pe ke v_Density lx ly lz cpu
thermo 		    	1000

compute			1 all rdf 70
fix 			11 all ave/time 1000 NFILES DUMP c_1[*] file allTIME.rdf mode vector

rerun           	../dump1.lammpstrj first START last END dump x y z box yes