units                   real
atom_style              full
bond_style              harmonic
angle_style             harmonic
dihedral_style          harmonic
pair_style              lj/cut/coul/long 10.0
pair_modify             mix arithmetic shift yes
kspace_style            pppm 1e-04
boundary                p p p
special_bonds           amber

read_data               Data.NPTRelax2

variable                MassinGrams equal mass(all)/6.02e23
variable                VolumeCubicCentimeter equal vol*1.0e-24
variable                Density equal v_MassinGrams/v_VolumeCubicCentimeter
variable                SpecificVolume equal 1.0/v_Density
variable                px equal pxx
variable                py equal pyy
variable                pz equal pzz
variable                p equal press

reset_timestep          0

timestep                1

thermo_style            custom step time atoms temp press vol etotal epair emol evdwl ecoul elong ebond eangle enthalpy pe ke v_Density lx ly lz cpu
thermo                  1000

fix                     PX all ave/time 1 100000 100000 v_px mode scalar file px.dat
fix                     PY all ave/time 1 100000 100000 v_py mode scalar file py.dat
fix                     PZ all ave/time 1 100000 100000 v_pz mode scalar file pz.dat
fix                     P  all ave/time 1 100000 100000 v_p mode scalar file p.dat

dump                    11 all custom 1000 dump1.lammpstrj id mol type q mass x y z ix iy iz fx fy fz
dump_modify             11 sort id

fix                     NVT all nvt temp 295 295 100
run                     5000000
unfix                   NVT
write_data              Data.Production1
